p cnf 432 1265 
-1  2 0 
-3  2 0 
 1  3 -2 0 
 1 -4 0 
 3 -4 0 
-1 -3  4 0 
-4  5 0 
-6  5 0 
 4  6 -5 0 
 4 -7 0 
 6 -7 0 
-4 -6  7 0 
-7  8 0 
-9  8 0 
 7  9 -8 0 
 7 -10 0 
 9 -10 0 
-7 -9  10 0 
-10  11 0 
-12  11 0 
 10  12 -11 0 
 10 -13 0 
 12 -13 0 
-10 -12  13 0 
-13  14 0 
-15  14 0 
 13  15 -14 0 
 13 -16 0 
 15 -16 0 
-13 -15  16 0 
-16  17 0 
-18  17 0 
 16  18 -17 0 
 16 -19 0 
 18 -19 0 
-16 -18  19 0 
-19  20 0 
-21  20 0 
 19  21 -20 0 
 19 -22 0 
 21 -22 0 
-19 -21  22 0 
-22  23 0 
-24  23 0 
 22  24 -23 0 
 22 -25 0 
 24 -25 0 
-22 -24  25 0 
-25  26 0 
-27  26 0 
 25  27 -26 0 
 25 -28 0 
 27 -28 0 
-25 -27  28 0 
-28  29 0 
-30  29 0 
 28  30 -29 0 
 28 -31 0 
 30 -31 0 
-28 -30  31 0 
-31  32 0 
-33  32 0 
 31  33 -32 0 
 31 -34 0 
 33 -34 0 
-31 -33  34 0 
-34  35 0 
-36  35 0 
 34  36 -35 0 
 34 -37 0 
 36 -37 0 
-34 -36  37 0 
-37  38 0 
-39  38 0 
 37  39 -38 0 
 37 -40 0 
 39 -40 0 
-37 -39  40 0 
-40  41 0 
-42  41 0 
 40  42 -41 0 
 40 -43 0 
 42 -43 0 
-40 -42  43 0 
-43  44 0 
-45  44 0 
 43  45 -44 0 
-43 -45 0 
-2  46 0 
-5  46 0 
 2  5 -46 0 
 2 -47 0 
 5 -47 0 
-2 -5  47 0 
-47  48 0 
-8  48 0 
 47  8 -48 0 
 47 -49 0 
 8 -49 0 
-47 -8  49 0 
-49  50 0 
-11  50 0 
 49  11 -50 0 
 49 -51 0 
 11 -51 0 
-49 -11  51 0 
-51  52 0 
-14  52 0 
 51  14 -52 0 
 51 -53 0 
 14 -53 0 
-51 -14  53 0 
-53  54 0 
-17  54 0 
 53  17 -54 0 
 53 -55 0 
 17 -55 0 
-53 -17  55 0 
-55  56 0 
-20  56 0 
 55  20 -56 0 
 55 -57 0 
 20 -57 0 
-55 -20  57 0 
-57  58 0 
-23  58 0 
 57  23 -58 0 
 57 -59 0 
 23 -59 0 
-57 -23  59 0 
-59  60 0 
-26  60 0 
 59  26 -60 0 
 59 -61 0 
 26 -61 0 
-59 -26  61 0 
-61  62 0 
-29  62 0 
 61  29 -62 0 
 61 -63 0 
 29 -63 0 
-61 -29  63 0 
-63  64 0 
-32  64 0 
 63  32 -64 0 
 63 -65 0 
 32 -65 0 
-63 -32  65 0 
-65  66 0 
-35  66 0 
 65  35 -66 0 
 65 -67 0 
 35 -67 0 
-65 -35  67 0 
-67  68 0 
-38  68 0 
 67  38 -68 0 
 67 -69 0 
 38 -69 0 
-67 -38  69 0 
-69  70 0 
-41  70 0 
 69  41 -70 0 
 69 -71 0 
 41 -71 0 
-69 -41  71 0 
-71  72 0 
-44  72 0 
 71  44 -72 0 
-71 -44 0 
-46  73 0 
-48  73 0 
 46  48 -73 0 
 46 -74 0 
 48 -74 0 
-46 -48  74 0 
-74  75 0 
-50  75 0 
 74  50 -75 0 
 74 -76 0 
 50 -76 0 
-74 -50  76 0 
-76  77 0 
-52  77 0 
 76  52 -77 0 
 76 -78 0 
 52 -78 0 
-76 -52  78 0 
-78  79 0 
-54  79 0 
 78  54 -79 0 
 78 -80 0 
 54 -80 0 
-78 -54  80 0 
-80  81 0 
-56  81 0 
 80  56 -81 0 
 80 -82 0 
 56 -82 0 
-80 -56  82 0 
-82  83 0 
-58  83 0 
 82  58 -83 0 
 82 -84 0 
 58 -84 0 
-82 -58  84 0 
-84  85 0 
-60  85 0 
 84  60 -85 0 
 84 -86 0 
 60 -86 0 
-84 -60  86 0 
-86  87 0 
-62  87 0 
 86  62 -87 0 
 86 -88 0 
 62 -88 0 
-86 -62  88 0 
-88  89 0 
-64  89 0 
 88  64 -89 0 
 88 -90 0 
 64 -90 0 
-88 -64  90 0 
-90  91 0 
-66  91 0 
 90  66 -91 0 
 90 -92 0 
 66 -92 0 
-90 -66  92 0 
-92  93 0 
-68  93 0 
 92  68 -93 0 
 92 -94 0 
 68 -94 0 
-92 -68  94 0 
-94  95 0 
-70  95 0 
 94  70 -95 0 
 94 -96 0 
 70 -96 0 
-94 -70  96 0 
-96  97 0 
-72  97 0 
 96  72 -97 0 
-96 -72 0 
-73  98 0 
-75  98 0 
 73  75 -98 0 
 73 -99 0 
 75 -99 0 
-73 -75  99 0 
-99  100 0 
-77  100 0 
 99  77 -100 0 
 99 -101 0 
 77 -101 0 
-99 -77  101 0 
-101  102 0 
-79  102 0 
 101  79 -102 0 
 101 -103 0 
 79 -103 0 
-101 -79  103 0 
-103  104 0 
-81  104 0 
 103  81 -104 0 
 103 -105 0 
 81 -105 0 
-103 -81  105 0 
-105  106 0 
-83  106 0 
 105  83 -106 0 
 105 -107 0 
 83 -107 0 
-105 -83  107 0 
-107  108 0 
-85  108 0 
 107  85 -108 0 
 107 -109 0 
 85 -109 0 
-107 -85  109 0 
-109  110 0 
-87  110 0 
 109  87 -110 0 
 109 -111 0 
 87 -111 0 
-109 -87  111 0 
-111  112 0 
-89  112 0 
 111  89 -112 0 
 111 -113 0 
 89 -113 0 
-111 -89  113 0 
-113  114 0 
-91  114 0 
 113  91 -114 0 
 113 -115 0 
 91 -115 0 
-113 -91  115 0 
-115  116 0 
-93  116 0 
 115  93 -116 0 
 115 -117 0 
 93 -117 0 
-115 -93  117 0 
-117  118 0 
-95  118 0 
 117  95 -118 0 
 117 -119 0 
 95 -119 0 
-117 -95  119 0 
-119  120 0 
-97  120 0 
 119  97 -120 0 
-119 -97 0 
-98  121 0 
-100  121 0 
 98  100 -121 0 
 98 -122 0 
 100 -122 0 
-98 -100  122 0 
-122  123 0 
-102  123 0 
 122  102 -123 0 
 122 -124 0 
 102 -124 0 
-122 -102  124 0 
-124  125 0 
-104  125 0 
 124  104 -125 0 
 124 -126 0 
 104 -126 0 
-124 -104  126 0 
-126  127 0 
-106  127 0 
 126  106 -127 0 
 126 -128 0 
 106 -128 0 
-126 -106  128 0 
-128  129 0 
-108  129 0 
 128  108 -129 0 
 128 -130 0 
 108 -130 0 
-128 -108  130 0 
-130  131 0 
-110  131 0 
 130  110 -131 0 
 130 -132 0 
 110 -132 0 
-130 -110  132 0 
-132  133 0 
-112  133 0 
 132  112 -133 0 
 132 -134 0 
 112 -134 0 
-132 -112  134 0 
-134  135 0 
-114  135 0 
 134  114 -135 0 
 134 -136 0 
 114 -136 0 
-134 -114  136 0 
-136  137 0 
-116  137 0 
 136  116 -137 0 
 136 -138 0 
 116 -138 0 
-136 -116  138 0 
-138  139 0 
-118  139 0 
 138  118 -139 0 
 138 -140 0 
 118 -140 0 
-138 -118  140 0 
-140  141 0 
-120  141 0 
 140  120 -141 0 
-140 -120 0 
-121  142 0 
-123  142 0 
 121  123 -142 0 
 121 -143 0 
 123 -143 0 
-121 -123  143 0 
-143  144 0 
-125  144 0 
 143  125 -144 0 
 143 -145 0 
 125 -145 0 
-143 -125  145 0 
-145  146 0 
-127  146 0 
 145  127 -146 0 
 145 -147 0 
 127 -147 0 
-145 -127  147 0 
-147  148 0 
-129  148 0 
 147  129 -148 0 
 147 -149 0 
 129 -149 0 
-147 -129  149 0 
-149  150 0 
-131  150 0 
 149  131 -150 0 
 149 -151 0 
 131 -151 0 
-149 -131  151 0 
-151  152 0 
-133  152 0 
 151  133 -152 0 
 151 -153 0 
 133 -153 0 
-151 -133  153 0 
-153  154 0 
-135  154 0 
 153  135 -154 0 
 153 -155 0 
 135 -155 0 
-153 -135  155 0 
-155  156 0 
-137  156 0 
 155  137 -156 0 
 155 -157 0 
 137 -157 0 
-155 -137  157 0 
-157  158 0 
-139  158 0 
 157  139 -158 0 
 157 -159 0 
 139 -159 0 
-157 -139  159 0 
-159  160 0 
-141  160 0 
 159  141 -160 0 
-159 -141 0 
-142  161 0 
-144  161 0 
 142  144 -161 0 
 142 -162 0 
 144 -162 0 
-142 -144  162 0 
-162  163 0 
-146  163 0 
 162  146 -163 0 
 162 -164 0 
 146 -164 0 
-162 -146  164 0 
-164  165 0 
-148  165 0 
 164  148 -165 0 
 164 -166 0 
 148 -166 0 
-164 -148  166 0 
-166  167 0 
-150  167 0 
 166  150 -167 0 
 166 -168 0 
 150 -168 0 
-166 -150  168 0 
-168  169 0 
-152  169 0 
 168  152 -169 0 
 168 -170 0 
 152 -170 0 
-168 -152  170 0 
-170  171 0 
-154  171 0 
 170  154 -171 0 
 170 -172 0 
 154 -172 0 
-170 -154  172 0 
-172  173 0 
-156  173 0 
 172  156 -173 0 
 172 -174 0 
 156 -174 0 
-172 -156  174 0 
-174  175 0 
-158  175 0 
 174  158 -175 0 
 174 -176 0 
 158 -176 0 
-174 -158  176 0 
-176  177 0 
-160  177 0 
 176  160 -177 0 
-176 -160 0 
-161  178 0 
-163  178 0 
 161  163 -178 0 
 161 -179 0 
 163 -179 0 
-161 -163  179 0 
-179  180 0 
-165  180 0 
 179  165 -180 0 
 179 -181 0 
 165 -181 0 
-179 -165  181 0 
-181  182 0 
-167  182 0 
 181  167 -182 0 
 181 -183 0 
 167 -183 0 
-181 -167  183 0 
-183  184 0 
-169  184 0 
 183  169 -184 0 
 183 -185 0 
 169 -185 0 
-183 -169  185 0 
-185  186 0 
-171  186 0 
 185  171 -186 0 
 185 -187 0 
 171 -187 0 
-185 -171  187 0 
-187  188 0 
-173  188 0 
 187  173 -188 0 
 187 -189 0 
 173 -189 0 
-187 -173  189 0 
-189  190 0 
-175  190 0 
 189  175 -190 0 
 189 -191 0 
 175 -191 0 
-189 -175  191 0 
-191  192 0 
-177  192 0 
 191  177 -192 0 
-191 -177 0 
-178  193 0 
-180  193 0 
 178  180 -193 0 
 178 -194 0 
 180 -194 0 
-178 -180  194 0 
-194  195 0 
-182  195 0 
 194  182 -195 0 
 194 -196 0 
 182 -196 0 
-194 -182  196 0 
-196  197 0 
-184  197 0 
 196  184 -197 0 
 196 -198 0 
 184 -198 0 
-196 -184  198 0 
-198  199 0 
-186  199 0 
 198  186 -199 0 
 198 -200 0 
 186 -200 0 
-198 -186  200 0 
-200  201 0 
-188  201 0 
 200  188 -201 0 
 200 -202 0 
 188 -202 0 
-200 -188  202 0 
-202  203 0 
-190  203 0 
 202  190 -203 0 
 202 -204 0 
 190 -204 0 
-202 -190  204 0 
-204  205 0 
-192  205 0 
 204  192 -205 0 
-204 -192 0 
-193  206 0 
-195  206 0 
 193  195 -206 0 
 193 -207 0 
 195 -207 0 
-193 -195  207 0 
-207  208 0 
-197  208 0 
 207  197 -208 0 
 207 -209 0 
 197 -209 0 
-207 -197  209 0 
-209  210 0 
-199  210 0 
 209  199 -210 0 
 209 -211 0 
 199 -211 0 
-209 -199  211 0 
-211  212 0 
-201  212 0 
 211  201 -212 0 
 211 -213 0 
 201 -213 0 
-211 -201  213 0 
-213  214 0 
-203  214 0 
 213  203 -214 0 
 213 -215 0 
 203 -215 0 
-213 -203  215 0 
-215  216 0 
-205  216 0 
 215  205 -216 0 
-215 -205 0 
-206  217 0 
-208  217 0 
 206  208 -217 0 
 206 -218 0 
 208 -218 0 
-206 -208  218 0 
-218  219 0 
-210  219 0 
 218  210 -219 0 
 218 -220 0 
 210 -220 0 
-218 -210  220 0 
-220  221 0 
-212  221 0 
 220  212 -221 0 
 220 -222 0 
 212 -222 0 
-220 -212  222 0 
-222  223 0 
-214  223 0 
 222  214 -223 0 
 222 -224 0 
 214 -224 0 
-222 -214  224 0 
-224  225 0 
-216  225 0 
 224  216 -225 0 
-224 -216 0 
 217 -226 0 
 219 -226 0 
-217 -219  226 0 
 226 -227 0 
 221 -227 0 
-226 -221  227 0 
 227 -228 0 
 223 -228 0 
-227 -223  228 0 
-228 -225 0 
-1  229 0 
-3  229 0 
 1  3 -229 0 
 1 -230 0 
 3 -230 0 
-1 -3  230 0 
-230  231 0 
-6  231 0 
 230  6 -231 0 
 230 -232 0 
 6 -232 0 
-230 -6  232 0 
-232  233 0 
-9  233 0 
 232  9 -233 0 
 232 -234 0 
 9 -234 0 
-232 -9  234 0 
-234  235 0 
-12  235 0 
 234  12 -235 0 
 234 -236 0 
 12 -236 0 
-234 -12  236 0 
-236  237 0 
-15  237 0 
 236  15 -237 0 
 236 -238 0 
 15 -238 0 
-236 -15  238 0 
-238  239 0 
-18  239 0 
 238  18 -239 0 
 238 -240 0 
 18 -240 0 
-238 -18  240 0 
-240  241 0 
-21  241 0 
 240  21 -241 0 
 240 -242 0 
 21 -242 0 
-240 -21  242 0 
-242  243 0 
-24  243 0 
 242  24 -243 0 
 242 -244 0 
 24 -244 0 
-242 -24  244 0 
-244  245 0 
-27  245 0 
 244  27 -245 0 
 244 -246 0 
 27 -246 0 
-244 -27  246 0 
-246  247 0 
-30  247 0 
 246  30 -247 0 
 246 -248 0 
 30 -248 0 
-246 -30  248 0 
-248  249 0 
-33  249 0 
 248  33 -249 0 
 248 -250 0 
 33 -250 0 
-248 -33  250 0 
-250  251 0 
-36  251 0 
 250  36 -251 0 
 250 -252 0 
 36 -252 0 
-250 -36  252 0 
-252  253 0 
-39  253 0 
 252  39 -253 0 
 252 -254 0 
 39 -254 0 
-252 -39  254 0 
-254  255 0 
-42  255 0 
 254  42 -255 0 
 254 -256 0 
 42 -256 0 
-254 -42  256 0 
-256  257 0 
-45  257 0 
 256  45 -257 0 
-229  258 0 
-231  258 0 
 229  231 -258 0 
 229 -259 0 
 231 -259 0 
-229 -231  259 0 
-259  260 0 
-233  260 0 
 259  233 -260 0 
 259 -261 0 
 233 -261 0 
-259 -233  261 0 
-261  262 0 
-235  262 0 
 261  235 -262 0 
 261 -263 0 
 235 -263 0 
-261 -235  263 0 
-263  264 0 
-237  264 0 
 263  237 -264 0 
 263 -265 0 
 237 -265 0 
-263 -237  265 0 
-265  266 0 
-239  266 0 
 265  239 -266 0 
 265 -267 0 
 239 -267 0 
-265 -239  267 0 
-267  268 0 
-241  268 0 
 267  241 -268 0 
 267 -269 0 
 241 -269 0 
-267 -241  269 0 
-269  270 0 
-243  270 0 
 269  243 -270 0 
 269 -271 0 
 243 -271 0 
-269 -243  271 0 
-271  272 0 
-245  272 0 
 271  245 -272 0 
 271 -273 0 
 245 -273 0 
-271 -245  273 0 
-273  274 0 
-247  274 0 
 273  247 -274 0 
 273 -275 0 
 247 -275 0 
-273 -247  275 0 
-275  276 0 
-249  276 0 
 275  249 -276 0 
 275 -277 0 
 249 -277 0 
-275 -249  277 0 
-277  278 0 
-251  278 0 
 277  251 -278 0 
 277 -279 0 
 251 -279 0 
-277 -251  279 0 
-279  280 0 
-253  280 0 
 279  253 -280 0 
 279 -281 0 
 253 -281 0 
-279 -253  281 0 
-281  282 0 
-255  282 0 
 281  255 -282 0 
 281 -283 0 
 255 -283 0 
-281 -255  283 0 
-283  284 0 
-257  284 0 
 283  257 -284 0 
-258  285 0 
-260  285 0 
 258  260 -285 0 
 258 -286 0 
 260 -286 0 
-258 -260  286 0 
-286  287 0 
-262  287 0 
 286  262 -287 0 
 286 -288 0 
 262 -288 0 
-286 -262  288 0 
-288  289 0 
-264  289 0 
 288  264 -289 0 
 288 -290 0 
 264 -290 0 
-288 -264  290 0 
-290  291 0 
-266  291 0 
 290  266 -291 0 
 290 -292 0 
 266 -292 0 
-290 -266  292 0 
-292  293 0 
-268  293 0 
 292  268 -293 0 
 292 -294 0 
 268 -294 0 
-292 -268  294 0 
-294  295 0 
-270  295 0 
 294  270 -295 0 
 294 -296 0 
 270 -296 0 
-294 -270  296 0 
-296  297 0 
-272  297 0 
 296  272 -297 0 
 296 -298 0 
 272 -298 0 
-296 -272  298 0 
-298  299 0 
-274  299 0 
 298  274 -299 0 
 298 -300 0 
 274 -300 0 
-298 -274  300 0 
-300  301 0 
-276  301 0 
 300  276 -301 0 
 300 -302 0 
 276 -302 0 
-300 -276  302 0 
-302  303 0 
-278  303 0 
 302  278 -303 0 
 302 -304 0 
 278 -304 0 
-302 -278  304 0 
-304  305 0 
-280  305 0 
 304  280 -305 0 
 304 -306 0 
 280 -306 0 
-304 -280  306 0 
-306  307 0 
-282  307 0 
 306  282 -307 0 
 306 -308 0 
 282 -308 0 
-306 -282  308 0 
-308  309 0 
-284  309 0 
 308  284 -309 0 
-285  310 0 
-287  310 0 
 285  287 -310 0 
 285 -311 0 
 287 -311 0 
-285 -287  311 0 
-311  312 0 
-289  312 0 
 311  289 -312 0 
 311 -313 0 
 289 -313 0 
-311 -289  313 0 
-313  314 0 
-291  314 0 
 313  291 -314 0 
 313 -315 0 
 291 -315 0 
-313 -291  315 0 
-315  316 0 
-293  316 0 
 315  293 -316 0 
 315 -317 0 
 293 -317 0 
-315 -293  317 0 
-317  318 0 
-295  318 0 
 317  295 -318 0 
 317 -319 0 
 295 -319 0 
-317 -295  319 0 
-319  320 0 
-297  320 0 
 319  297 -320 0 
 319 -321 0 
 297 -321 0 
-319 -297  321 0 
-321  322 0 
-299  322 0 
 321  299 -322 0 
 321 -323 0 
 299 -323 0 
-321 -299  323 0 
-323  324 0 
-301  324 0 
 323  301 -324 0 
 323 -325 0 
 301 -325 0 
-323 -301  325 0 
-325  326 0 
-303  326 0 
 325  303 -326 0 
 325 -327 0 
 303 -327 0 
-325 -303  327 0 
-327  328 0 
-305  328 0 
 327  305 -328 0 
 327 -329 0 
 305 -329 0 
-327 -305  329 0 
-329  330 0 
-307  330 0 
 329  307 -330 0 
 329 -331 0 
 307 -331 0 
-329 -307  331 0 
-331  332 0 
-309  332 0 
 331  309 -332 0 
-310  333 0 
-312  333 0 
 310  312 -333 0 
 310 -334 0 
 312 -334 0 
-310 -312  334 0 
-334  335 0 
-314  335 0 
 334  314 -335 0 
 334 -336 0 
 314 -336 0 
-334 -314  336 0 
-336  337 0 
-316  337 0 
 336  316 -337 0 
 336 -338 0 
 316 -338 0 
-336 -316  338 0 
-338  339 0 
-318  339 0 
 338  318 -339 0 
 338 -340 0 
 318 -340 0 
-338 -318  340 0 
-340  341 0 
-320  341 0 
 340  320 -341 0 
 340 -342 0 
 320 -342 0 
-340 -320  342 0 
-342  343 0 
-322  343 0 
 342  322 -343 0 
 342 -344 0 
 322 -344 0 
-342 -322  344 0 
-344  345 0 
-324  345 0 
 344  324 -345 0 
 344 -346 0 
 324 -346 0 
-344 -324  346 0 
-346  347 0 
-326  347 0 
 346  326 -347 0 
 346 -348 0 
 326 -348 0 
-346 -326  348 0 
-348  349 0 
-328  349 0 
 348  328 -349 0 
 348 -350 0 
 328 -350 0 
-348 -328  350 0 
-350  351 0 
-330  351 0 
 350  330 -351 0 
 350 -352 0 
 330 -352 0 
-350 -330  352 0 
-352  353 0 
-332  353 0 
 352  332 -353 0 
-333  354 0 
-335  354 0 
 333  335 -354 0 
 333 -355 0 
 335 -355 0 
-333 -335  355 0 
-355  356 0 
-337  356 0 
 355  337 -356 0 
 355 -357 0 
 337 -357 0 
-355 -337  357 0 
-357  358 0 
-339  358 0 
 357  339 -358 0 
 357 -359 0 
 339 -359 0 
-357 -339  359 0 
-359  360 0 
-341  360 0 
 359  341 -360 0 
 359 -361 0 
 341 -361 0 
-359 -341  361 0 
-361  362 0 
-343  362 0 
 361  343 -362 0 
 361 -363 0 
 343 -363 0 
-361 -343  363 0 
-363  364 0 
-345  364 0 
 363  345 -364 0 
 363 -365 0 
 345 -365 0 
-363 -345  365 0 
-365  366 0 
-347  366 0 
 365  347 -366 0 
 365 -367 0 
 347 -367 0 
-365 -347  367 0 
-367  368 0 
-349  368 0 
 367  349 -368 0 
 367 -369 0 
 349 -369 0 
-367 -349  369 0 
-369  370 0 
-351  370 0 
 369  351 -370 0 
 369 -371 0 
 351 -371 0 
-369 -351  371 0 
-371  372 0 
-353  372 0 
 371  353 -372 0 
-354  373 0 
-356  373 0 
 354  356 -373 0 
 354 -374 0 
 356 -374 0 
-354 -356  374 0 
-374  375 0 
-358  375 0 
 374  358 -375 0 
 374 -376 0 
 358 -376 0 
-374 -358  376 0 
-376  377 0 
-360  377 0 
 376  360 -377 0 
 376 -378 0 
 360 -378 0 
-376 -360  378 0 
-378  379 0 
-362  379 0 
 378  362 -379 0 
 378 -380 0 
 362 -380 0 
-378 -362  380 0 
-380  381 0 
-364  381 0 
 380  364 -381 0 
 380 -382 0 
 364 -382 0 
-380 -364  382 0 
-382  383 0 
-366  383 0 
 382  366 -383 0 
 382 -384 0 
 366 -384 0 
-382 -366  384 0 
-384  385 0 
-368  385 0 
 384  368 -385 0 
 384 -386 0 
 368 -386 0 
-384 -368  386 0 
-386  387 0 
-370  387 0 
 386  370 -387 0 
 386 -388 0 
 370 -388 0 
-386 -370  388 0 
-388  389 0 
-372  389 0 
 388  372 -389 0 
-373  390 0 
-375  390 0 
 373  375 -390 0 
 373 -391 0 
 375 -391 0 
-373 -375  391 0 
-391  392 0 
-377  392 0 
 391  377 -392 0 
 391 -393 0 
 377 -393 0 
-391 -377  393 0 
-393  394 0 
-379  394 0 
 393  379 -394 0 
 393 -395 0 
 379 -395 0 
-393 -379  395 0 
-395  396 0 
-381  396 0 
 395  381 -396 0 
 395 -397 0 
 381 -397 0 
-395 -381  397 0 
-397  398 0 
-383  398 0 
 397  383 -398 0 
 397 -399 0 
 383 -399 0 
-397 -383  399 0 
-399  400 0 
-385  400 0 
 399  385 -400 0 
 399 -401 0 
 385 -401 0 
-399 -385  401 0 
-401  402 0 
-387  402 0 
 401  387 -402 0 
 401 -403 0 
 387 -403 0 
-401 -387  403 0 
-403  404 0 
-389  404 0 
 403  389 -404 0 
-390  405 0 
-392  405 0 
 390  392 -405 0 
 390 -406 0 
 392 -406 0 
-390 -392  406 0 
-406  407 0 
-394  407 0 
 406  394 -407 0 
 406 -408 0 
 394 -408 0 
-406 -394  408 0 
-408  409 0 
-396  409 0 
 408  396 -409 0 
 408 -410 0 
 396 -410 0 
-408 -396  410 0 
-410  411 0 
-398  411 0 
 410  398 -411 0 
 410 -412 0 
 398 -412 0 
-410 -398  412 0 
-412  413 0 
-400  413 0 
 412  400 -413 0 
 412 -414 0 
 400 -414 0 
-412 -400  414 0 
-414  415 0 
-402  415 0 
 414  402 -415 0 
 414 -416 0 
 402 -416 0 
-414 -402  416 0 
-416  417 0 
-404  417 0 
 416  404 -417 0 
-405  418 0 
-407  418 0 
 405  407 -418 0 
 405 -419 0 
 407 -419 0 
-405 -407  419 0 
-419  420 0 
-409  420 0 
 419  409 -420 0 
 419 -421 0 
 409 -421 0 
-419 -409  421 0 
-421  422 0 
-411  422 0 
 421  411 -422 0 
 421 -423 0 
 411 -423 0 
-421 -411  423 0 
-423  424 0 
-413  424 0 
 423  413 -424 0 
 423 -425 0 
 413 -425 0 
-423 -413  425 0 
-425  426 0 
-415  426 0 
 425  415 -426 0 
 425 -427 0 
 415 -427 0 
-425 -415  427 0 
-427  428 0 
-417  428 0 
 427  417 -428 0 
 418  420 0 
 418 -429 0 
 420 -429 0 
-418 -420  429 0 
 429  422 0 
 429 -430 0 
 422 -430 0 
-429 -422  430 0 
 430  424 0 
 430 -431 0 
 424 -431 0 
-430 -424  431 0 
 431  426 0 
 431 -432 0 
 426 -432 0 
-431 -426  432 0 
 432  428 0 
